/*********************************************
 * OPL 12.6.0.0 Data
 * Author: Adrian Rodriguez Bazaga, Pau Rodriguez Esmerats
 * Creation Date: 10/12/2017 at 07:27:25
 *********************************************/

maxConsec=6;
maxPresence=12;
maxHours=8;
minHours=2;
hours=18;
demand= [21 35 38 26 33 31 24 34 38 31 28 15 10 0 2 0 1 0  ];
nNurses=48;
